Solving original (integer) problem with strategy gdp.hull_exact_conic_no_cholesky...
--- Job model.gms Start 02/16/26 04:50:44 52.2.0 d8e408be LEX-LEG x86 64bit/Linux
--- Applying:
    /package/gams/52.2/gmsprmun.txt
--- GAMS Parameters defined
    Input /local/scratch/a/sgusev/repos/k_means/data/gams_scip_gdp.hull_exact_conic_no_cholesky/no_mode/2026-02-16_04-50-43/original/model.gms
    Output /local/scratch/a/sgusev/repos/k_means/data/gams_scip_gdp.hull_exact_conic_no_cholesky/no_mode/2026-02-16_04-50-43/original/output.lst
    ScrDir /local/scratch/a/sgusev/repos/k_means/data/gams_scip_gdp.hull_exact_conic_no_cholesky/no_mode/2026-02-16_04-50-43/original/225a/
    SysDir /package/gams/52.2/
    CurDir /local/scratch/a/sgusev/repos/k_means/data/gams_scip_gdp.hull_exact_conic_no_cholesky/no_mode/2026-02-16_04-50-43/original/
    LogOption 3
    AppendLog 1
Licensee: David Bernal / SECQUOIA Research Group         G251008+0003Ac-GEN
          Purdue University, Davidson School of Chemical EngineeringDCE4838
          225a/gamslice.dat
          5a82958a-fbca-4a23
          node:66820903 mem:995 cores:48 ipport:39005 v:2                  
          Evaluation license: Not for commercial or production use
          The time-limited license stops working on : Jun 30, 2027
System information: 48 physical cores and 995 Gb physical memory detected
GAMS 52.2.0   Copyright (C) 1987-2025 GAMS Development. All rights reserved
--- Starting compilation
--- model.gms(3932) 2 Mb
--- $echo File /local/scratch/a/sgusev/repos/k_means/data/gams_scip_gdp.hull_exact_conic_no_cholesky/no_mode/2026-02-16_04-50-43/original/scip.opt
--- model.gms(5814) 2 Mb
--- Starting execution: elapsed 0:00:00.020
--- model.gms(3942) 3 Mb
--- Generating MINLP model GAMS_MODEL
--- model.gms(3946) 6 Mb
---   1,201 rows  614 columns  3,155 non-zeroes
---   845 nl-code  325 nl-non-zeroes
---   65 discrete-columns
--- Range statistics (absolute non-zero finite values)
--- RHS       [min, max] : [ 1.000E+00, 1.000E+00] - Zero values observed as well
--- Bound     [min, max] : [ 1.000E+00, 7.800E+01] - Zero values observed as well
--- Matrix    [min, max] : [ 7.402E-02, 7.800E+01] - Zero values observed as well
--- model.gms(3946) 4 Mb
--- Executing SCIP (Solvelink=5): elapsed 0:00:00.026

SCIP             52.2.0 d8e408be Dec 8, 2025           LEG x86 64bit/Linux    
SCIP version 9.2.4 (a94f778ac8)
Copyright (c) 2002-2025 Zuse Institute Berlin (ZIB)

External libraries: 
  CPLEX 22.1.2.0       Linear Programming Solver developed by IBM (www.cplex.com)
  CppAD 20180000.0     Algorithmic Differentiation of C++ algorithms developed by B. Bell (github.com/coin-or/CppAD)
  PaPILO 2.4.4         parallel presolve for integer and linear optimization (github.com/scipopt/papilo) (built with TBB) [GitHash: 7c826d50]
  Nauty 2.8.9          Computing Graph Automorphism Groups by Brendan D. McKay (users.cecs.anu.edu.au/~bdm/nauty)
  sassy 1.1            Symmetry preprocessor by Markus Anders (github.com/markusa4/sassy)
  Ipopt 3.14.19        Interior Point Optimizer developed by A. Waechter et.al. (github.com/coin-or/Ipopt)

reading option file /local/scratch/a/sgusev/repos/k_means/data/gams_scip_gdp.hull_exact_conic_no_cholesky/no_mode/2026-02-16_04-50-43/original/scip.opt
non-default parameter settings:
limits/time = 300
limits/gap = 1e-06
limits/absgap = 1e-10
lp/threads = 1
misc/printreason = FALSE
numerics/dualfeastol = 1e-06
parallel/maxnthreads = 1
nlpi/ipopt/linear_solver = "ma27"
nlpi/ipopt/linear_system_scaling = "mc19"

original problem has 613 variables (65 bin, 0 int, 548 cont) and 1200 constraints

all 1 solutions given by solution candidate storage are infeasible

presolving:
(round 1, fast)       13 del vars, 0 del conss, 0 add conss, 65 chg bounds, 0 chg sides, 0 chg coeffs, 0 upgd conss, 0 impls, 13 clqs
(round 2, fast)       13 del vars, 0 del conss, 0 add conss, 65 chg bounds, 13 chg sides, 0 chg coeffs, 0 upgd conss, 0 impls, 13 clqs
(round 3, exhaustive) 13 del vars, 0 del conss, 0 add conss, 65 chg bounds, 13 chg sides, 0 chg coeffs, 858 upgd conss, 0 impls, 13 clqs
   (0.0s) probing cycle finished: starting next cycle
   (0.0s) symmetry computation started: requiring (bin +, int +, cont +), (fixed: bin -, int -, cont -)
   (0.0s) no symmetry present (symcode time: 0.00)
presolving (4 rounds: 4 fast, 2 medium, 2 exhaustive):
 13 deleted vars, 0 deleted constraints, 0 added constraints, 65 tightened bounds, 0 added holes, 13 changed sides, 0 changed coefficients
 2990 implications, 13 cliques
presolved problem has 600 variables (65 bin, 0 int, 0 impl, 535 cont) and 1200 constraints
    845 constraints of type <varbound>
     13 constraints of type <setppc>
    277 constraints of type <linear>
     65 constraints of type <nonlinear>
Presolving Time: 0.02

 time | node  | left  |LP iter|LP it/n|mem/heur|mdpt |vars |cons |rows |cuts |sepa|confs|strbr|  dualbound   | primalbound  |  gap   | compl. 
  0.1s|     1 |     0 |   815 |     - |    11M |   0 | 925 |1200 |1915 |   0 |  0 |   0 |   0 | 0.000000e+00 |      --      |    Inf | unknown
o 0.1s|     1 |     0 |  1043 |     - |feaspump|   0 | 925 |1200 |1915 |   0 |  0 |   0 |   0 | 0.000000e+00 | 5.675804e+00 |    Inf | unknown
  0.2s|     1 |     0 |  1281 |     - |    12M |   0 | 925 |1200 |2064 | 149 |  1 |   0 |   0 | 0.000000e+00 | 5.675804e+00 |    Inf | unknown
  0.2s|     1 |     0 |  1281 |     - |    12M |   0 | 925 |1200 |2051 | 149 |  1 |   0 |   0 | 0.000000e+00 | 5.675804e+00 |    Inf | unknown
  0.2s|     1 |     0 |  1528 |     - |    13M |   0 | 925 |1200 |2205 | 303 |  2 |   0 |   0 | 0.000000e+00 | 5.675804e+00 |    Inf | unknown
  0.2s|     1 |     0 |  1759 |     - |    13M |   0 | 925 |1200 |2345 | 443 |  3 |   0 |   0 | 0.000000e+00 | 5.675804e+00 |    Inf | unknown
  0.3s|     1 |     0 |  1963 |     - |    14M |   0 | 925 |1200 |2486 | 584 |  4 |   0 |   0 | 0.000000e+00 | 5.675804e+00 |    Inf | unknown
  0.3s|     1 |     0 |  2153 |     - |    14M |   0 | 925 |1200 |2603 | 701 |  5 |   0 |   0 | 0.000000e+00 | 5.675804e+00 |    Inf | unknown
  0.3s|     1 |     0 |  2341 |     - |    15M |   0 | 925 |1200 |2722 | 820 |  6 |   0 |   0 | 0.000000e+00 | 5.675804e+00 |    Inf | unknown
  0.4s|     1 |     0 |  2603 |     - |    16M |   0 | 925 |1200 |2833 | 931 |  7 |   0 |   0 | 0.000000e+00 | 5.675804e+00 |    Inf | unknown
  0.4s|     1 |     0 |  2794 |     - |    17M |   0 | 925 |1200 |2962 |1060 |  8 |   0 |   0 | 0.000000e+00 | 5.675804e+00 |    Inf | unknown
  0.5s|     1 |     0 |  3045 |     - |    17M |   0 | 925 |1200 |3061 |1159 |  9 |   0 |   0 | 0.000000e+00 | 5.675804e+00 |    Inf | unknown
  0.5s|     1 |     0 |  3249 |     - |    18M |   0 | 925 |1200 |2501 |1252 | 10 |   0 |   0 | 0.000000e+00 | 5.675804e+00 |    Inf | unknown
  0.5s|     1 |     0 |  3442 |     - |    18M |   0 | 925 |1200 |2584 |1335 | 11 |   0 |   0 | 0.000000e+00 | 5.675804e+00 |    Inf | unknown
  0.5s|     1 |     0 |  3442 |     - |    18M |   0 | 925 |1187 |2584 |1335 | 11 |   0 |   0 | 0.000000e+00 | 5.675804e+00 |    Inf | unknown
 time | node  | left  |LP iter|LP it/n|mem/heur|mdpt |vars |cons |rows |cuts |sepa|confs|strbr|  dualbound   | primalbound  |  gap   | compl. 
  0.5s|     1 |     0 |  3796 |     - |    18M |   0 | 925 |1187 |2657 |1408 | 12 |   0 |   0 | 0.000000e+00 | 5.675804e+00 |    Inf | unknown
  0.6s|     1 |     0 |  4264 |     - |    19M |   0 | 925 |1187 |2737 |1488 | 13 |   0 |   0 | 0.000000e+00 | 5.675804e+00 |    Inf | unknown
  0.6s|     1 |     0 |  4539 |     - |    19M |   0 | 925 |1187 |2805 |1556 | 14 |   0 |   0 | 0.000000e+00 | 5.675804e+00 |    Inf | unknown
  0.7s|     1 |     0 |  4739 |     - |    19M |   0 | 925 |1187 |2855 |1606 | 15 |   0 |   0 | 0.000000e+00 | 5.675804e+00 |    Inf | unknown
  0.7s|     1 |     0 |  4918 |     - |    19M |   0 | 925 |1187 |2134 |1655 | 16 |   0 |   0 | 0.000000e+00 | 5.675804e+00 |    Inf | unknown
  0.7s|     1 |     0 |  5057 |     - |    20M |   0 | 925 |1187 |2184 |1705 | 17 |   0 |   0 | 0.000000e+00 | 5.675804e+00 |    Inf | unknown
  0.7s|     1 |     0 |  5279 |     - |    20M |   0 | 925 |1187 |2232 |1753 | 18 |   0 |   0 | 0.000000e+00 | 5.675804e+00 |    Inf | unknown
  0.8s|     1 |     0 |  5466 |     - |    20M |   0 | 925 |1187 |2280 |1801 | 19 |   0 |   0 | 0.000000e+00 | 5.675804e+00 |    Inf | unknown
  0.8s|     1 |     0 |  5667 |     - |    20M |   0 | 925 |1187 |2320 |1841 | 20 |   0 |   0 | 0.000000e+00 | 5.675804e+00 |    Inf | unknown
  0.8s|     1 |     0 |  5796 |     - |    20M |   0 | 925 |1187 |2347 |1868 | 21 |   0 |   0 | 0.000000e+00 | 5.675804e+00 |    Inf | unknown
  0.8s|     1 |     0 |  5921 |     - |    20M |   0 | 925 |1187 |1874 |1892 | 22 |   0 |   0 | 0.000000e+00 | 5.675804e+00 |    Inf | unknown
  1.3s|     1 |     0 |  6087 |     - |    21M |   0 | 925 |1187 |1874 |1892 | 22 |   0 |   4 | 0.000000e+00 | 5.675804e+00 |    Inf | unknown
  1.3s|     1 |     0 |  6115 |     - |    21M |   0 | 925 |1187 |1892 |1910 | 23 |   0 |   4 | 0.000000e+00 | 5.675804e+00 |    Inf | unknown
  1.4s|     1 |     0 |  6115 |     - |    21M |   0 | 925 |1187 |1892 |1910 | 24 |   0 |   8 | 0.000000e+00 | 5.675804e+00 |    Inf | unknown
  1.4s|     1 |     0 |  6225 |     - |    21M |   0 | 925 |1187 |1911 |1929 | 25 |   0 |   8 | 0.000000e+00 | 5.675804e+00 |    Inf | unknown
 time | node  | left  |LP iter|LP it/n|mem/heur|mdpt |vars |cons |rows |cuts |sepa|confs|strbr|  dualbound   | primalbound  |  gap   | compl. 
  1.4s|     1 |     0 |  6302 |     - |    21M |   0 | 925 |1187 |1914 |1932 | 26 |   0 |   8 | 0.000000e+00 | 5.675804e+00 |    Inf | unknown
  1.5s|     1 |     0 |  6302 |     - |    21M |   0 | 925 |1187 |1914 |1932 | 26 |   0 |  11 | 0.000000e+00 | 5.675804e+00 |    Inf | unknown
  1.5s|     1 |     0 |  6663 |     - |    21M |   0 | 925 |1187 |1954 |1972 | 27 |   0 |  11 | 0.000000e+00 | 5.675804e+00 |    Inf | unknown
  1.5s|     1 |     0 |  6679 |     - |    21M |   0 | 925 |1187 |1704 |1978 | 28 |   0 |  11 | 0.000000e+00 | 5.675804e+00 |    Inf | unknown
  1.6s|     1 |     0 |  6679 |     - |    21M |   0 | 925 |1187 |1704 |1978 | 28 |   0 |  14 | 0.000000e+00 | 5.675804e+00 |    Inf | unknown
  1.6s|     1 |     0 |  6928 |     - |    21M |   0 | 925 |1187 |1775 |2049 | 29 |   0 |  14 | 0.000000e+00 | 5.675804e+00 |    Inf | unknown
  1.6s|     1 |     0 |  6929 |     - |    21M |   0 | 925 |1187 |1776 |2050 | 30 |   0 |  14 | 0.000000e+00 | 5.675804e+00 |    Inf | unknown
  1.7s|     1 |     0 |  6929 |     - |    21M |   0 | 925 |1187 |1776 |2050 | 30 |   0 |  18 | 0.000000e+00 | 5.675804e+00 |    Inf | unknown
  1.7s|     1 |     0 |  7148 |     - |    21M |   0 | 925 |1187 |1863 |2137 | 31 |   0 |  18 | 0.000000e+00 | 5.675804e+00 |    Inf | unknown
  1.7s|     1 |     0 |  7305 |     - |    21M |   0 | 925 |1187 |1869 |2143 | 32 |   0 |  18 | 0.000000e+00 | 5.675804e+00 |    Inf | unknown
  1.8s|     1 |     0 |  7305 |     - |    21M |   0 | 925 |1187 |1869 |2143 | 32 |   0 |  21 | 0.000000e+00 | 5.675804e+00 |    Inf | unknown
  1.8s|     1 |     0 |  7581 |     - |    21M |   0 | 925 |1187 |1962 |2236 | 33 |   0 |  21 | 0.000000e+00 | 5.675804e+00 |    Inf | unknown
  1.8s|     1 |     0 |  7770 |     - |    21M |   0 | 925 |1187 |1743 |2237 | 34 |   0 |  21 | 0.000000e+00 | 5.675804e+00 |    Inf | unknown
  1.9s|     1 |     0 |  7770 |     - |    21M |   0 | 925 |1187 |1743 |2237 | 34 |   0 |  24 | 0.000000e+00 | 5.675804e+00 |    Inf | unknown
  1.9s|     1 |     0 |  8006 |     - |    21M |   0 | 925 |1187 |1834 |2328 | 35 |   0 |  24 | 0.000000e+00 | 5.675804e+00 |    Inf | unknown
 time | node  | left  |LP iter|LP it/n|mem/heur|mdpt |vars |cons |rows |cuts |sepa|confs|strbr|  dualbound   | primalbound  |  gap   | compl. 
  1.9s|     1 |     0 |  8077 |     - |    21M |   0 | 925 |1187 |1838 |2332 | 36 |   0 |  24 | 0.000000e+00 | 5.675804e+00 |    Inf | unknown
  1.9s|     1 |     0 |  8077 |     - |    21M |   0 | 925 |1187 |1838 |2332 | 36 |   0 |  28 | 0.000000e+00 | 5.675804e+00 |    Inf | unknown
  1.9s|     1 |     0 |  8461 |     - |    21M |   0 | 925 |1187 |1949 |2443 | 37 |   0 |  28 | 0.000000e+00 | 5.675804e+00 |    Inf | unknown
  1.9s|     1 |     0 |  8592 |     - |    21M |   0 | 925 |1187 |1954 |2448 | 38 |   0 |  28 | 0.000000e+00 | 5.675804e+00 |    Inf | unknown
  2.2s|     1 |     0 |  8592 |     - |    21M |   0 | 925 |1187 |1954 |2448 | 38 |   0 |  34 | 0.000000e+00 | 5.675804e+00 |    Inf | unknown
  2.2s|     1 |     0 |  9348 |     - |    21M |   0 | 925 |1187 |2080 |2574 | 39 |   0 |  34 | 0.000000e+00 | 5.675804e+00 |    Inf | unknown
  2.2s|     1 |     0 |  9881 |     - |    21M |   0 | 925 |1187 |1839 |2578 | 40 |   0 |  34 | 0.000000e+00 | 5.675804e+00 |    Inf | unknown
  2.3s|     1 |     0 |  9881 |     - |    21M |   0 | 925 |1187 |1839 |2578 | 40 |   0 |  37 | 0.000000e+00 | 5.675804e+00 |    Inf | unknown
  2.3s|     1 |     0 | 10311 |     - |    21M |   0 | 925 |1187 |1941 |2680 | 41 |   0 |  37 | 0.000000e+00 | 5.675804e+00 |    Inf | unknown
  2.3s|     1 |     0 | 10423 |     - |    21M |   0 | 925 |1187 |1948 |2687 | 42 |   0 |  37 | 0.000000e+00 | 5.675804e+00 |    Inf | unknown
  2.4s|     1 |     0 | 10423 |     - |    21M |   0 | 925 |1187 |1948 |2687 | 42 |   0 |  41 | 0.000000e+00 | 5.675804e+00 |    Inf | unknown
  2.5s|     1 |     0 | 10862 |     - |    21M |   0 | 925 |1187 |2042 |2781 | 43 |   0 |  41 | 0.000000e+00 | 5.675804e+00 |    Inf | unknown
  2.5s|     1 |     0 | 10941 |     - |    21M |   0 | 925 |1187 |2053 |2792 | 44 |   0 |  41 | 0.000000e+00 | 5.675804e+00 |    Inf | unknown
  2.6s|     1 |     0 | 10941 |     - |    21M |   0 | 925 |1187 |2053 |2792 | 44 |   0 |  45 | 0.000000e+00 | 5.675804e+00 |    Inf | unknown
  2.6s|     1 |     0 | 11224 |     - |    21M |   0 | 925 |1187 |2154 |2893 | 45 |   0 |  45 | 0.000000e+00 | 5.675804e+00 |    Inf | unknown
 time | node  | left  |LP iter|LP it/n|mem/heur|mdpt |vars |cons |rows |cuts |sepa|confs|strbr|  dualbound   | primalbound  |  gap   | compl. 
  2.6s|     1 |     0 | 11341 |     - |    21M |   0 | 925 |1187 |1870 |2903 | 46 |   0 |  45 | 0.000000e+00 | 5.675804e+00 |    Inf | unknown
  2.8s|     1 |     0 | 11341 |     - |    21M |   0 | 925 |1187 |1870 |2903 | 46 |   0 |  49 | 0.000000e+00 | 5.675804e+00 |    Inf | unknown
  2.8s|     1 |     0 | 11575 |     - |    21M |   0 | 925 |1187 |1978 |3011 | 47 |   0 |  49 | 0.000000e+00 | 5.675804e+00 |    Inf | unknown
  2.8s|     1 |     0 | 11588 |     - |    21M |   0 | 925 |1187 |1982 |3015 | 48 |   0 |  49 | 0.000000e+00 | 5.675804e+00 |    Inf | unknown
  2.9s|     1 |     0 | 11588 |     - |    21M |   0 | 925 |1187 |1982 |3015 | 48 |   0 |  53 | 0.000000e+00 | 5.675804e+00 |    Inf | unknown
  2.9s|     1 |     0 | 11851 |     - |    21M |   0 | 925 |1187 |2076 |3109 | 49 |   0 |  53 | 0.000000e+00 | 5.675804e+00 |    Inf | unknown
  2.9s|     1 |     0 | 11925 |     - |    21M |   0 | 925 |1187 |2080 |3113 | 50 |   0 |  53 | 0.000000e+00 | 5.675804e+00 |    Inf | unknown
  3.0s|     1 |     0 | 11925 |     - |    21M |   0 | 925 |1187 |2080 |3113 | 50 |   0 |  57 | 0.000000e+00 | 5.675804e+00 |    Inf | unknown
  3.0s|     1 |     0 | 12289 |     - |    21M |   0 | 925 |1187 |2194 |3227 | 51 |   0 |  57 | 0.000000e+00 | 5.675804e+00 |    Inf | unknown
  3.0s|     1 |     0 | 12301 |     - |    21M |   0 | 925 |1187 |1877 |3228 | 52 |   0 |  57 | 0.000000e+00 | 5.675804e+00 |    Inf | unknown
  3.1s|     1 |     0 | 12301 |     - |    21M |   0 | 925 |1187 |1877 |3228 | 52 |   0 |  58 | 0.000000e+00 | 5.675804e+00 |    Inf | unknown
  3.1s|     1 |     0 | 12481 |     - |    21M |   0 | 925 |1187 |1964 |3315 | 53 |   0 |  58 | 0.000000e+00 | 5.675804e+00 |    Inf | unknown
  3.1s|     1 |     0 | 12510 |     - |    21M |   0 | 925 |1187 |1968 |3319 | 54 |   0 |  58 | 0.000000e+00 | 5.675804e+00 |    Inf | unknown
  3.1s|     1 |     2 | 12510 |     - |    21M |   0 | 925 |1187 |1968 |3319 | 54 |   0 |  58 | 0.000000e+00 | 5.675804e+00 |    Inf | unknown
d 3.6s|    10 |    11 | 17757 | 620.1 |pscostdi|   7 | 925 |1187 |2297 |5357 |  8 |   0 |  85 | 0.000000e+00 | 4.816674e+00 |    Inf | unknown
 time | node  | left  |LP iter|LP it/n|mem/heur|mdpt |vars |cons |rows |cuts |sepa|confs|strbr|  dualbound   | primalbound  |  gap   | compl. 
  9.2s|   100 |   101 | 86526 | 751.0 |    31M |  11 | 925 |1219 |2181 |  22k|  5 |  95 | 179 | 0.000000e+00 | 4.816674e+00 |    Inf | unknown
L 9.8s|   110 |   111 | 94492 | 755.2 |    gins|  11 | 925 |1225 |2403 |  23k|  6 | 101 | 182 | 0.000000e+00 | 4.350529e+00 |    Inf | unknown
L 9.8s|   110 |   111 | 94492 | 755.2 |    gins|  11 | 925 |1225 |2403 |  23k|  6 | 101 | 182 | 0.000000e+00 | 3.535074e+00 |    Inf | unknown
L14.4s|   176 |   173 |147343 | 772.4 |    alns|  21 | 925 |1249 |2914 |  35k|  5 | 129 | 215 | 0.000000e+00 | 3.162347e+00 |    Inf | unknown
 15.6s|   200 |   191 |157768 | 731.6 |    49M |  29 | 925 |1255 |3277 |  38k|  6 | 135 | 215 | 0.000000e+00 | 3.162347e+00 |    Inf | unknown
 18.9s|   300 |   227 |193947 | 607.9 |    57M |  33 | 925 |1262 |2522 |  49k|  8 | 148 | 217 | 0.000000e+00 | 3.162347e+00 |    Inf |   3.43%
 23.2s|   400 |   283 |240115 | 571.3 |    70M |  35 | 925 |1263 |2168 |  62k|  2 | 169 | 217 | 0.000000e+00 | 3.162347e+00 |    Inf |   5.14%
 28.1s|   500 |   343 |292683 | 562.1 |    81M |  35 | 925 |1263 |2736 |  75k|  5 | 193 | 217 | 0.000000e+00 | 3.162347e+00 |    Inf |   5.38%
L28.9s|   520 |   224 |298283 | 551.3 |    rins|  35 | 925 |1263 |2940 |  77k|  5 | 197 | 217 | 0.000000e+00 | 2.322357e+00 |    Inf |  10.11%
 31.7s|   600 |   252 |325482 | 523.0 |    85M |  35 | 925 |1264 |2874 |  84k|  0 | 211 | 217 | 0.000000e+00 | 2.322357e+00 |    Inf |  10.37%
 35.0s|   700 |   284 |359844 | 497.4 |    87M |  35 | 925 |1267 |2704 |  92k|  7 | 223 | 219 | 0.000000e+00 | 2.322357e+00 |    Inf |  11.04%
 38.3s|   800 |   306 |386096 | 468.0 |    92M |  35 | 925 |1267 |3192 | 100k|  0 | 239 | 224 | 0.000000e+00 | 2.322357e+00 |    Inf |  11.34%
 41.1s|   900 |   336 |415606 | 448.8 |    96M |  35 | 925 |1269 |2772 | 107k|  0 | 265 | 227 | 0.000000e+00 | 2.322357e+00 |    Inf |  11.48%
 44.2s|  1000 |   370 |447982 | 436.2 |    98M |  35 | 925 |1269 |2496 | 115k|  0 | 283 | 230 | 0.000000e+00 | 2.322357e+00 |    Inf |  11.59%
 47.0s|  1100 |   398 |477230 | 423.2 |   103M |  35 | 925 |1270 |2785 | 122k|  2 | 305 | 231 | 0.000000e+00 | 2.322357e+00 |    Inf |  11.64%
 time | node  | left  |LP iter|LP it/n|mem/heur|mdpt |vars |cons |rows |cuts |sepa|confs|strbr|  dualbound   | primalbound  |  gap   | compl. 
L47.2s|  1105 |   359 |478059 | 422.0 |    rins|  35 | 925 |1269 |2890 | 122k|  6 | 307 | 232 | 0.000000e+00 | 2.179675e+00 |    Inf |  11.85%
 50.3s|  1200 |   384 |509038 | 414.4 |   107M |  35 | 925 |1270 |2771 | 130k|  0 | 345 | 239 | 0.000000e+00 | 2.179675e+00 |    Inf |  12.11%
 52.3s|  1300 |   394 |526771 | 396.1 |   112M |  41 | 925 |1270 |2707 | 135k|  7 | 357 | 243 | 0.000000e+00 | 2.179675e+00 |    Inf |  12.29%
 55.0s|  1400 |   414 |557225 | 389.6 |   116M |  41 | 925 |1272 |2569 | 142k|  7 | 378 | 253 | 0.000000e+00 | 2.179675e+00 |    Inf |  12.38%
 57.5s|  1500 |   428 |583134 | 380.9 |   119M |  41 | 925 |1272 |3253 | 149k|  0 | 399 | 259 | 0.000000e+00 | 2.179675e+00 |    Inf |  12.40%
 60.1s|  1600 |   448 |610468 | 374.2 |   120M |  41 | 925 |1273 |2721 | 156k|  5 | 414 | 262 | 0.000000e+00 | 2.179675e+00 |    Inf |  12.42%
 62.9s|  1700 |   468 |637349 | 368.0 |   127M |  41 | 925 |1274 |2845 | 162k|  0 | 434 | 267 | 0.000000e+00 | 2.179675e+00 |    Inf |  12.50%
 66.2s|  1800 |   486 |670675 | 366.0 |   130M |  41 | 925 |1274 |3088 | 170k|  4 | 450 | 274 | 0.000000e+00 | 2.179675e+00 |    Inf |  12.91%
 68.6s|  1900 |   508 |695742 | 360.0 |   132M |  41 | 925 |1274 |2860 | 177k|  7 | 463 | 278 | 0.000000e+00 | 2.179675e+00 |    Inf |  13.42%
 72.5s|  2000 |   532 |728985 | 358.6 |   138M |  41 | 925 |1275 |2953 | 185k|  0 | 492 | 298 | 0.000000e+00 | 2.179675e+00 |    Inf |  13.71%
 75.3s|  2100 |   546 |759966 | 356.3 |   143M |  41 | 925 |1277 |2947 | 193k|  0 | 507 | 300 | 0.000000e+00 | 2.179675e+00 |    Inf |  14.78%
 77.4s|  2200 |   546 |779558 | 349.0 |   143M |  41 | 925 |1279 |2878 | 199k|  0 | 527 | 310 | 0.000000e+00 | 2.179675e+00 |    Inf |  15.41%
 79.6s|  2300 |   554 |799889 | 342.6 |   152M |  41 | 925 |1281 |2991 | 205k|  6 | 544 | 323 | 0.000000e+00 | 2.179675e+00 |    Inf |  15.71%
 82.2s|  2400 |   576 |828868 | 340.4 |   155M |  41 | 925 |1282 |2661 | 212k|  7 | 565 | 329 | 0.000000e+00 | 2.179675e+00 |    Inf |  15.97%
 84.8s|  2500 |   606 |858810 | 338.8 |   158M |  41 | 925 |1282 |2867 | 219k|  4 | 584 | 339 | 0.000000e+00 | 2.179675e+00 |    Inf |  16.01%
 time | node  | left  |LP iter|LP it/n|mem/heur|mdpt |vars |cons |rows |cuts |sepa|confs|strbr|  dualbound   | primalbound  |  gap   | compl. 
*85.6s|  2538 |   567 |865369 | 336.3 |    LP  |  41 | 925 |1276 |3245 | 221k| 13 | 591 | 341 | 0.000000e+00 | 2.117429e+00 |    Inf |  16.04%
 87.1s|  2600 |   577 |882930 | 335.0 |   160M |  41 | 925 |1277 |2791 | 225k|  5 | 611 | 353 | 0.000000e+00 | 2.117429e+00 |    Inf |  16.40%
 89.0s|  2700 |   591 |901989 | 329.7 |   160M |  41 | 925 |1277 |2572 | 231k|  0 | 622 | 356 | 0.000000e+00 | 2.117429e+00 |    Inf |  16.73%
 90.5s|  2800 |   595 |915185 | 322.6 |   161M |  41 | 925 |1277 |2734 | 235k|  2 | 635 | 357 | 0.000000e+00 | 2.117429e+00 |    Inf |  16.92%
 92.3s|  2900 |   607 |933819 | 317.9 |   163M |  41 | 925 |1278 |2743 | 240k|  6 | 649 | 360 | 0.000000e+00 | 2.117429e+00 |    Inf |  17.18%
 94.3s|  3000 |   623 |953685 | 313.9 |   168M |  41 | 925 |1278 |2950 | 246k|  6 | 667 | 370 | 0.000000e+00 | 2.117429e+00 |    Inf |  17.28%
 97.2s|  3100 |   643 |984182 | 313.7 |   169M |  41 | 925 |1279 |2685 | 252k|  0 | 680 | 374 | 0.000000e+00 | 2.117429e+00 |    Inf |  17.46%
 99.5s|  3200 |   659 |  1005k| 310.6 |   171M |  41 | 925 |1279 |2705 | 259k|  0 | 699 | 383 | 0.000000e+00 | 2.117429e+00 |    Inf |  17.47%
  102s|  3300 |   673 |  1031k| 308.9 |   172M |  41 | 925 |1279 |2825 | 265k|  7 | 709 | 387 | 0.000000e+00 | 2.117429e+00 |    Inf |  17.60%
  105s|  3400 |   689 |  1059k| 308.2 |   174M |  41 | 925 |1283 |2529 | 272k|  0 | 726 | 389 | 0.000000e+00 | 2.117429e+00 |    Inf |  18.90%
  107s|  3500 |   707 |  1087k| 307.2 |   176M |  41 | 925 |1284 |3030 | 279k|  5 | 740 | 392 | 0.000000e+00 | 2.117429e+00 |    Inf |  18.92%
  109s|  3600 |   721 |  1109k| 304.8 |   183M |  41 | 925 |1284 |2469 | 285k|  0 | 750 | 395 | 0.000000e+00 | 2.117429e+00 |    Inf |  19.08%
  112s|  3700 |   737 |  1138k| 304.5 |   185M |  41 | 925 |1285 |2795 | 292k|  5 | 768 | 401 | 0.000000e+00 | 2.117429e+00 |    Inf |  19.44%
  115s|  3800 |   751 |  1163k| 303.1 |   187M |  41 | 925 |1285 |2788 | 298k|  6 | 784 | 415 | 0.000000e+00 | 2.117429e+00 |    Inf |  19.44%
  118s|  3900 |   761 |  1190k| 302.3 |   190M |  41 | 925 |1285 |2328 | 305k|  0 | 794 | 419 | 0.000000e+00 | 2.117429e+00 |    Inf |  19.86%
 time | node  | left  |LP iter|LP it/n|mem/heur|mdpt |vars |cons |rows |cuts |sepa|confs|strbr|  dualbound   | primalbound  |  gap   | compl. 
  120s|  4000 |   771 |  1215k| 300.8 |   194M |  41 | 925 |1285 |2411 | 312k|  0 | 803 | 427 | 0.000000e+00 | 2.117429e+00 |    Inf |  20.17%
  123s|  4100 |   779 |  1242k| 300.1 |   196M |  41 | 925 |1285 |2726 | 319k|  2 | 817 | 428 | 0.000000e+00 | 2.117429e+00 |    Inf |  20.61%
  126s|  4200 |   801 |  1271k| 299.9 |   198M |  41 | 925 |1285 |3089 | 326k|  0 | 837 | 437 | 0.000000e+00 | 2.117429e+00 |    Inf |  20.69%
  129s|  4300 |   821 |  1294k| 298.2 |   199M |  41 | 925 |1287 |3204 | 332k|  5 | 856 | 455 | 0.000000e+00 | 2.117429e+00 |    Inf |  20.70%
  131s|  4400 |   841 |  1317k| 296.7 |   209M |  41 | 925 |1287 |3216 | 338k|  7 | 879 | 462 | 0.000000e+00 | 2.117429e+00 |    Inf |  20.71%
  134s|  4500 |   891 |  1353k| 298.2 |   211M |  41 | 925 |1287 |2559 | 347k|  0 | 892 | 463 | 0.000000e+00 | 2.117429e+00 |    Inf |  20.72%
  136s|  4600 |   917 |  1382k| 297.9 |   212M |  41 | 925 |1287 |2761 | 354k|  6 | 912 | 467 | 0.000000e+00 | 2.117429e+00 |    Inf |  20.72%
  139s|  4700 |   947 |  1411k| 297.8 |   214M |  41 | 925 |1287 |3266 | 362k|  6 | 931 | 476 | 0.000000e+00 | 2.117429e+00 |    Inf |  20.72%
  141s|  4800 |   963 |  1434k| 296.3 |   215M |  41 | 925 |1288 |2777 | 368k|  5 | 963 | 495 | 0.000000e+00 | 2.117429e+00 |    Inf |  20.72%
  143s|  4900 |   983 |  1455k| 294.5 |   217M |  41 | 925 |1288 |3090 | 374k|  8 | 974 | 504 | 0.000000e+00 | 2.117429e+00 |    Inf |  20.72%
  145s|  5000 |   989 |  1475k| 292.7 |   218M |  41 | 925 |1289 |2946 | 380k|  6 | 988 | 505 | 0.000000e+00 | 2.117429e+00 |    Inf |  20.73%
  147s|  5100 |  1009 |  1497k| 291.3 |   220M |  41 | 925 |1289 |2993 | 386k|  5 |1000 | 506 | 0.000000e+00 | 2.117429e+00 |    Inf |  20.73%
  150s|  5200 |  1029 |  1517k| 289.6 |   221M |  41 | 925 |1289 |2678 | 393k|  2 |1017 | 510 | 6.750536e-05 | 2.117429e+00 |  Large |  20.73%
  152s|  5300 |  1061 |  1547k| 289.8 |   224M |  41 | 925 |1289 |3047 | 400k|  2 |1033 | 511 | 1.089455e-03 | 2.117429e+00 |  Large |  20.81%
* 154s|  5370 |  1060 |  1560k| 288.4 |    LP  |  41 | 925 |1290 |3363 | 404k| 12 |1046 | 514 | 1.863473e-03 | 2.113406e+00 |  Large |  20.81%
 time | node  | left  |LP iter|LP it/n|mem/heur|mdpt |vars |cons |rows |cuts |sepa|confs|strbr|  dualbound   | primalbound  |  gap   | compl. 
  154s|  5400 |  1068 |  1568k| 288.3 |   233M |  41 | 925 |1290 |2948 | 406k|  6 |1056 | 515 | 1.863473e-03 | 2.113406e+00 |  Large |  20.87%
  157s|  5500 |  1086 |  1601k| 288.9 |   238M |  41 | 925 |1291 |2708 | 413k|  0 |1068 | 515 | 2.348145e-03 | 2.113406e+00 |  Large |  21.12%
  160s|  5600 |  1110 |  1630k| 289.1 |   240M |  41 | 925 |1293 |2995 | 420k|  1 |1082 | 515 | 2.350586e-03 | 2.113406e+00 |  Large |  21.32%
  163s|  5700 |  1130 |  1654k| 288.2 |   244M |  41 | 925 |1293 |2987 | 427k|  0 |1108 | 533 | 2.351733e-03 | 2.113406e+00 |  Large |  21.32%
  166s|  5800 |  1156 |  1678k| 287.3 |   246M |  41 | 925 |1293 |2898 | 433k|  2 |1121 | 539 | 2.439580e-03 | 2.113406e+00 |  Large |  21.35%
  168s|  5900 |  1166 |  1698k| 285.8 |   247M |  41 | 925 |1293 |2863 | 439k|  0 |1137 | 544 | 2.439580e-03 | 2.113406e+00 |  Large |  21.65%
  171s|  6000 |  1208 |  1727k| 286.0 |   251M |  41 | 925 |1293 |3109 | 446k|  3 |1165 | 548 | 6.094542e-03 | 2.113406e+00 |  Large |  21.76%
  173s|  6100 |  1206 |  1744k| 284.1 |   253M |  41 | 925 |1293 |2902 | 451k|  0 |1184 | 556 | 1.713493e-02 | 2.113406e+00 |  Large |  22.00%
  175s|  6200 |  1212 |  1770k| 283.6 |   254M |  41 | 925 |1298 |2980 | 458k|  7 |1212 | 565 | 2.160723e-02 | 2.113406e+00 |9681.01%|  22.89%
  178s|  6300 |  1226 |  1794k| 282.9 |   258M |  41 | 925 |1302 |2890 | 464k|  6 |1238 | 572 | 2.576891e-02 | 2.113406e+00 |8101.38%|  23.22%
  180s|  6400 |  1230 |  1815k| 281.9 |   258M |  41 | 925 |1302 |2815 | 470k|  0 |1251 | 573 | 2.576891e-02 | 2.113406e+00 |8101.38%|  23.41%
  182s|  6500 |  1242 |  1839k| 281.2 |   261M |  41 | 925 |1304 |2922 | 477k|  6 |1276 | 580 | 2.682747e-02 | 2.113406e+00 |7777.77%|  23.56%
  185s|  6600 |  1254 |  1867k| 281.2 |   270M |  41 | 925 |1305 |3068 | 483k|  0 |1292 | 582 | 3.291983e-02 | 2.113406e+00 |6319.86%|  23.87%
  187s|  6700 |  1262 |  1893k| 280.8 |   271M |  41 | 925 |1307 |3021 | 490k|  0 |1310 | 589 | 3.362177e-02 | 2.113406e+00 |6185.83%|  24.21%
  190s|  6800 |  1278 |  1920k| 280.7 |   274M |  41 | 925 |1307 |2896 | 497k|  0 |1319 | 590 | 3.872073e-02 | 2.113406e+00 |5358.07%|  24.41%
 time | node  | left  |LP iter|LP it/n|mem/heur|mdpt |vars |cons |rows |cuts |sepa|confs|strbr|  dualbound   | primalbound  |  gap   | compl. 
  193s|  6900 |  1290 |  1951k| 281.0 |   276M |  41 | 925 |1307 |2894 | 505k|  4 |1334 | 595 | 5.470061e-02 | 2.113406e+00 |3763.59%|  24.60%
  195s|  7000 |  1290 |  1974k| 280.4 |   280M |  41 | 925 |1310 |2922 | 511k|  0 |1356 | 605 | 6.623542e-02 | 2.113406e+00 |3090.75%|  25.11%
  197s|  7100 |  1302 |  1997k| 279.6 |   280M |  41 | 925 |1310 |3082 | 517k|  6 |1371 | 610 | 6.653514e-02 | 2.113406e+00 |3076.38%|  25.22%
  200s|  7200 |  1324 |  2022k| 279.2 |   282M |  41 | 925 |1310 |3133 | 524k|  8 |1389 | 617 | 6.653514e-02 | 2.113406e+00 |3076.38%|  25.37%
  203s|  7300 |  1346 |  2052k| 279.5 |   284M |  41 | 925 |1310 |2917 | 533k|  6 |1406 | 622 | 6.666750e-02 | 2.113406e+00 |3070.07%|  25.40%
  205s|  7400 |  1352 |  2076k| 278.9 |   286M |  41 | 925 |1310 |3129 | 540k|  5 |1425 | 626 | 7.765990e-02 | 2.113406e+00 |2621.36%|  26.27%
  207s|  7500 |  1352 |  2099k| 278.3 |   290M |  41 | 925 |1310 |3156 | 546k|  6 |1449 | 635 | 7.768639e-02 | 2.113406e+00 |2620.43%|  26.54%
  209s|  7600 |  1340 |  2115k| 276.8 |   290M |  41 | 925 |1310 |3047 | 551k|  6 |1473 | 643 | 7.768639e-02 | 2.113406e+00 |2620.43%|  26.98%
  211s|  7700 |  1344 |  2131k| 275.3 |   290M |  41 | 925 |1310 |3105 | 555k|  0 |1486 | 645 | 7.768639e-02 | 2.113406e+00 |2620.43%|  27.07%
  213s|  7800 |  1344 |  2150k| 274.2 |   291M |  41 | 925 |1310 |2953 | 560k|  0 |1499 | 647 | 7.768639e-02 | 2.113406e+00 |2620.43%|  27.23%
  215s|  7900 |  1340 |  2168k| 273.0 |   291M |  41 | 925 |1311 |2703 | 566k|  6 |1518 | 656 | 8.063130e-02 | 2.113406e+00 |2521.07%|  27.41%
  217s|  8000 |  1334 |  2186k| 271.8 |   292M |  41 | 925 |1311 |2863 | 571k|  0 |1539 | 664 | 8.063130e-02 | 2.113406e+00 |2521.07%|  27.87%
  219s|  8100 |  1346 |  2209k| 271.3 |   293M |  41 | 925 |1312 |3638 | 577k|  3 |1554 | 664 | 8.064448e-02 | 2.113406e+00 |2520.65%|  28.29%
  222s|  8200 |  1350 |  2234k| 271.1 |   295M |  41 | 925 |1314 |3008 | 583k|  4 |1568 | 669 | 1.182382e-01 | 2.113406e+00 |1687.41%|  29.04%
  224s|  8300 |  1360 |  2255k| 270.3 |   296M |  41 | 925 |1314 |2838 | 589k|  6 |1577 | 673 | 1.215284e-01 | 2.113406e+00 |1639.02%|  29.20%
 time | node  | left  |LP iter|LP it/n|mem/heur|mdpt |vars |cons |rows |cuts |sepa|confs|strbr|  dualbound   | primalbound  |  gap   | compl. 
  226s|  8400 |  1372 |  2278k| 269.9 |   299M |  41 | 925 |1314 |2873 | 595k|  5 |1598 | 681 | 1.229657e-01 | 2.113406e+00 |1618.70%|  29.30%
  228s|  8500 |  1376 |  2296k| 268.7 |   299M |  41 | 925 |1315 |2882 | 600k|  0 |1613 | 685 | 1.248717e-01 | 2.113406e+00 |1592.46%|  29.34%
  230s|  8600 |  1382 |  2316k| 268.0 |   299M |  41 | 925 |1315 |2836 | 606k|  0 |1622 | 691 | 1.268547e-01 | 2.113406e+00 |1566.00%|  29.69%
  232s|  8700 |  1400 |  2341k| 267.8 |   301M |  41 | 925 |1315 |2906 | 612k|  2 |1631 | 692 | 1.404077e-01 | 2.113406e+00 |1405.19%|  29.98%
  234s|  8800 |  1406 |  2356k| 266.5 |   302M |  41 | 925 |1315 |2946 | 617k|  1 |1650 | 700 | 1.404077e-01 | 2.113406e+00 |1405.19%|  30.06%
  237s|  8900 |  1414 |  2383k| 266.4 |   320M |  41 | 925 |1315 |2676 | 624k|  7 |1660 | 702 | 1.588267e-01 | 2.113406e+00 |1230.64%|  30.63%
  238s|  9000 |  1418 |  2401k| 265.5 |   320M |  41 | 925 |1315 |3040 | 630k|  0 |1673 | 708 | 1.608701e-01 | 2.113406e+00 |1213.73%|  30.81%
  240s|  9100 |  1416 |  2418k| 264.4 |   324M |  41 | 925 |1315 |2865 | 634k|  6 |1683 | 713 | 1.608701e-01 | 2.113406e+00 |1213.73%|  31.36%
  242s|  9200 |  1414 |  2434k| 263.3 |   324M |  41 | 925 |1315 |2848 | 639k|  2 |1696 | 717 | 1.608701e-01 | 2.113406e+00 |1213.73%|  31.53%
  244s|  9300 |  1422 |  2453k| 262.5 |   325M |  41 | 925 |1315 |2735 | 644k|  7 |1707 | 721 | 1.758210e-01 | 2.113406e+00 |1102.02%|  31.89%
  247s|  9400 |  1434 |  2474k| 262.0 |   325M |  41 | 925 |1315 |3060 | 650k|  5 |1720 | 723 | 2.044325e-01 | 2.113406e+00 | 933.79%|  32.17%
  249s|  9500 |  1452 |  2499k| 261.8 |   328M |  41 | 925 |1315 |3014 | 655k|  7 |1743 | 743 | 2.086871e-01 | 2.113406e+00 | 912.72%|  32.17%
  251s|  9600 |  1468 |  2524k| 261.7 |   329M |  41 | 925 |1316 |3106 | 662k|  6 |1765 | 755 | 2.178511e-01 | 2.113406e+00 | 870.11%|  32.47%
  254s|  9700 |  1464 |  2544k| 261.0 |   330M |  41 | 925 |1316 |2957 | 668k|  0 |1785 | 759 | 2.215578e-01 | 2.113406e+00 | 853.88%|  32.73%
  256s|  9800 |  1476 |  2561k| 260.2 |   331M |  41 | 925 |1316 |2441 | 673k|  6 |1790 | 760 | 2.230103e-01 | 2.113406e+00 | 847.67%|  32.85%
 time | node  | left  |LP iter|LP it/n|mem/heur|mdpt |vars |cons |rows |cuts |sepa|confs|strbr|  dualbound   | primalbound  |  gap   | compl. 
  258s|  9900 |  1466 |  2582k| 259.6 |   333M |  41 | 925 |1317 |2980 | 678k|  1 |1805 | 761 | 2.241244e-01 | 2.113406e+00 | 842.96%|  33.50%
  261s| 10000 |  1470 |  2607k| 259.5 |   336M |  41 | 925 |1318 |3177 | 685k|  5 |1823 | 765 | 2.277180e-01 | 2.113406e+00 | 828.08%|  34.11%
  263s| 10100 |  1470 |  2628k| 259.1 |   337M |  41 | 925 |1318 |2652 | 690k|  5 |1834 | 770 | 2.279003e-01 | 2.113406e+00 | 827.34%|  34.49%
  265s| 10200 |  1470 |  2644k| 258.1 |   339M |  41 | 925 |1318 |2972 | 695k|  0 |1840 | 773 | 2.327333e-01 | 2.113406e+00 | 808.08%|  34.66%
  267s| 10300 |  1482 |  2668k| 257.9 |   341M |  41 | 925 |1319 |2483 | 702k|  0 |1857 | 778 | 2.414848e-01 | 2.113406e+00 | 775.17%|  34.68%
  269s| 10400 |  1498 |  2692k| 257.7 |   342M |  41 | 925 |1319 |2887 | 710k|  1 |1871 | 778 | 2.416898e-01 | 2.113406e+00 | 774.43%|  34.87%
  271s| 10500 |  1492 |  2706k| 256.7 |   343M |  41 | 925 |1319 |2605 | 714k|  8 |1887 | 786 | 2.454085e-01 | 2.113406e+00 | 761.18%|  35.35%
  273s| 10600 |  1508 |  2724k| 255.9 |   352M |  41 | 925 |1320 |2851 | 719k|  6 |1900 | 792 | 2.465648e-01 | 2.113406e+00 | 757.14%|  35.43%
  275s| 10700 |  1510 |  2747k| 255.6 |   353M |  41 | 925 |1320 |3054 | 724k|  6 |1915 | 796 | 2.517285e-01 | 2.113406e+00 | 739.56%|  35.85%
  277s| 10800 |  1510 |  2764k| 254.8 |   353M |  41 | 925 |1320 |2941 | 728k|  3 |1927 | 800 | 2.529873e-01 | 2.113406e+00 | 735.38%|  36.26%
  279s| 10900 |  1508 |  2787k| 254.6 |   354M |  41 | 925 |1321 |2784 | 734k|  5 |1958 | 810 | 2.538805e-01 | 2.113406e+00 | 732.44%|  36.78%
  281s| 11000 |  1512 |  2805k| 253.9 |   355M |  41 | 925 |1321 |3004 | 739k|  4 |1966 | 811 | 2.538820e-01 | 2.113406e+00 | 732.44%|  37.10%
  283s| 11100 |  1512 |  2823k| 253.3 |   355M |  41 | 925 |1321 |2825 | 744k|  6 |1980 | 818 | 2.539484e-01 | 2.113406e+00 | 732.22%|  37.22%
  285s| 11200 |  1518 |  2841k| 252.7 |   355M |  41 | 925 |1326 |2460 | 748k|  2 |2006 | 831 | 2.539625e-01 | 2.113406e+00 | 732.17%|  37.33%
  287s| 11300 |  1532 |  2860k| 252.1 |   356M |  41 | 925 |1326 |2888 | 754k|  6 |2022 | 837 | 2.539625e-01 | 2.113406e+00 | 732.17%|  37.33%
 time | node  | left  |LP iter|LP it/n|mem/heur|mdpt |vars |cons |rows |cuts |sepa|confs|strbr|  dualbound   | primalbound  |  gap   | compl. 
  288s| 11400 |  1548 |  2875k| 251.2 |   357M |  41 | 925 |1327 |2826 | 758k|  0 |2040 | 838 | 2.539625e-01 | 2.113406e+00 | 732.17%|  37.34%
  290s| 11500 |  1560 |  2890k| 250.3 |   358M |  41 | 925 |1327 |2641 | 763k|  0 |2055 | 846 | 2.539625e-01 | 2.113406e+00 | 732.17%|  37.48%
  292s| 11600 |  1558 |  2909k| 249.8 |   359M |  41 | 925 |1329 |2926 | 768k|  5 |2069 | 853 | 2.539701e-01 | 2.113406e+00 | 732.15%|  37.71%
  293s| 11700 |  1550 |  2924k| 248.9 |   361M |  41 | 925 |1329 |3123 | 773k|  0 |2081 | 860 | 2.539701e-01 | 2.113406e+00 | 732.15%|  37.81%
  295s| 11800 |  1552 |  2942k| 248.4 |   377M |  41 | 925 |1331 |3157 | 777k|  0 |2092 | 865 | 2.555029e-01 | 2.113406e+00 | 727.16%|  38.18%
  297s| 11900 |  1542 |  2964k| 248.1 |   377M |  41 | 925 |1333 |2785 | 783k|  6 |2118 | 870 | 2.731667e-01 | 2.113406e+00 | 673.67%|  38.62%
  299s| 12000 |  1540 |  2981k| 247.4 |   378M |  41 | 925 |1333 |2507 | 787k|  0 |2132 | 874 | 2.731667e-01 | 2.113406e+00 | 673.67%|  39.12%

SCIP Status        : solving was interrupted [time limit reached]
Solving Time (sec) : 300.00
Solving Nodes      : 12048
Primal Bound       : +2.11340613378705e+00 (19 solutions)
Dual Bound         : +2.73168509383596e-01
Gap                : 673.66 %


--- Reading solution for model GAMS_MODEL
***
*** Solver did not provide marginals for model GAMS_MODEL
***
--- Executing after solve: elapsed 0:05:00.261
--- model.gms(3949) 4 Mb
--- model.gms(5814) 6 Mb
--- Putfile results /local/scratch/a/sgusev/repos/k_means/data/gams_scip_gdp.hull_exact_conic_no_cholesky/no_mode/2026-02-16_04-50-43/original/results.dat
--- Putfile statresults /local/scratch/a/sgusev/repos/k_means/data/gams_scip_gdp.hull_exact_conic_no_cholesky/no_mode/2026-02-16_04-50-43/original/resultsstat.dat
*** Status: Normal completion
--- Job model.gms Stop 02/16/26 04:55:44 elapsed 0:05:00.264
Original problem solved. Time taken: 300.86772060394287 seconds
Original objective value: 2.113406133787047
